
Gurobi 10.0.1 (win64) logging started Sat Sep 16 16:57:13 2023

Set parameter LogFile to value "./results-heuristic-start//log/Fattahi_setup_08_modified_old_deadline.log"
Gurobi Optimizer version 10.0.1 build v10.0.1rc0 (win64)

CPU model: AMD Ryzen 7 3700X 8-Core Processor, instruction set [SSE2|AVX|AVX2]
Thread count: 8 physical cores, 16 logical processors, using up to 16 threads

Optimize a model with 147 rows, 124 columns and 546 nonzeros
Model fingerprint: 0x7ec6d4f1
Model has 1 quadratic constraint
Variable types: 18 continuous, 106 integer (105 binary)
Coefficient statistics:
  Matrix range     [1e+00, 1e+06]
  QMatrix range    [1e+00, 1e+00]
  QLMatrix range   [1e+00, 4e+02]
  Objective range  [1e+00, 1e+00]
  Bounds range     [1e+00, 1e+00]
  RHS range        [1e+00, 3e+06]

User MIP start did not produce a new incumbent solution
User MIP start violates constraint initial_start_time_job0_stage0_machine0_constraint by 420.000000000

Presolve removed 27 rows and 56 columns
Presolve time: 0.00s
Presolved: 127 rows, 74 columns, 535 nonzeros
Variable types: 24 continuous, 50 integer (49 binary)
Found heuristic solution: objective 1803.0000000
Found heuristic solution: objective 1487.0000000

Root relaxation: objective 0.000000e+00, 21 iterations, 0.00 seconds (0.00 work units)

    Nodes    |    Current Node    |     Objective Bounds      |     Work
 Expl Unexpl |  Obj  Depth IntInf | Incumbent    BestBd   Gap | It/Node Time

     0     0    0.00000    0    4 1487.00000    0.00000   100%     -    0s
Another try with MIP start
H    0     0                    1419.0000000    0.00000   100%     -    0s
H    0     0                    1362.0000000    0.00000   100%     -    0s
H    0     0                    1033.0000000    0.00000   100%     -    0s
H    0     0                    1031.0000000    0.00000   100%     -    0s
     0     0    0.00000    0    9 1031.00000    0.00000   100%     -    0s
H    0     0                    1030.0000000    0.00000   100%     -    0s
H    0     0                     944.0000000    0.00000   100%     -    0s
     0     0    0.00000    0    5  944.00000    0.00000   100%     -    0s
     0     0  563.00000    0    5  944.00000  563.00000  40.4%     -    0s
     0     0  576.00497    0    6  944.00000  576.00497  39.0%     -    0s
     0     0  582.00000    0    9  944.00000  582.00000  38.3%     -    0s
     0     0  584.22047    0    9  944.00000  584.22047  38.1%     -    0s
     0     0  588.00000    0    8  944.00000  588.00000  37.7%     -    0s
     0     0  588.00000    0    8  944.00000  588.00000  37.7%     -    0s
     0     2  588.00000    0    8  944.00000  588.00000  37.7%     -    0s
H    9     7                     925.0000000  588.00000  36.4%   6.6    0s

Cutting planes:
  Learned: 29
  Cover: 3
  Implied bound: 9
  MIR: 1
  Flow cover: 17
  Inf proof: 2
  RLT: 5
  Relax-and-lift: 1

Explored 497 nodes (2144 simplex iterations) in 0.07 seconds (0.03 work units)
Thread count was 16 (of 16 available processors)

Solution count 9: 925 944 1030 ... 1803

Optimal solution found (tolerance 1.00e-04)
Best objective 9.250000000000e+02, best bound 9.250000000000e+02, gap 0.0000%
Warning: constraint name "precedence between 0,1 to 0,0 if x_[j,l,h,z,i]=1" has a space
Warning: constraint name "precedence between 0,1 to 0,0 if x_[j,l,h,z,i]=1" has a space
Warning: default constraint names used to write mps file
